NAME : rand100.9366797.tour
COMMENT : Length = 9366797
COMMENT : Found by LKH-3 [Keld Helsgaun] Tue Mar 15 22:40:30 2022
TYPE : TOUR
DIMENSION : 109
TOUR_SECTION
1
8
101
18
102
62
103
69
104
15
105
71
106
63
107
86
97
67
13
49
21
75
82
85
14
12
4
32
9
26
74
20
78
3
33
10
27
92
17
72
70
38
54
73
50
46
56
19
37
28
93
77
95
59
76
58
89
2
23
35
29
44
100
39
96
55
40
43
25
24
42
7
34
41
22
5
61
11
52
45
16
31
84
88
66
98
94
6
79
53
99
47
57
36
64
91
81
80
30
48
65
90
51
83
68
108
87
109
60
-1
EOF
